NAME : 100-5-3-i.32850.tour
COMMENT : Length = 32850
COMMENT : Found by LKH-3 [Keld Helsgaun] Tue Dec 17 14:06:59 2024
TYPE : TOUR
DIMENSION : 110
TOUR_SECTION
1
106
2
85
87
88
75
69
77
66
99
73
86
76
98
72
96
93
84
71
92
97
94
100
105
82
89
81
67
78
70
102
68
74
104
103
79
33
35
27
17
18
9
15
20
31
29
6
21
19
7
24
10
28
26
22
32
25
12
30
11
34
90
80
83
91
101
107
3
16
23
8
13
108
4
14
109
5
45
62
61
59
65
54
37
57
36
49
46
39
60
40
48
42
58
44
51
53
52
64
38
63
55
43
50
41
95
56
47
110
-1
EOF
